solving instance uflp nlass gunluk ../../../../../instances/uflp/gunluk/gunluk-30-60-6.txt sqrt
Couenne 0.5.8 -- an Open-Source solver for Mixed Integer Nonlinear Optimization
Mailing list: couenne@list.coin-or.org
Instructions: http://www.coin-or.org/Couenne
couenne: 
ANALYSIS TEST: Reformulating problem: 7.0 seconds
NLP0012I 
              Num      Status      Obj             It       time                 Location
NLP0014I             1      FAILED 1328.2945      248 638.0538
NLP0014I             1      FAILED 1328.2945      248 563.35103   resolve robustness
NLP3006W Warning : continuing branching, while there are unrecovered failures at nodes
Loaded instance "/tmp/jl_1uFWBO/model.nl"
Constraints:         5460
Variables:           5430 (1830 integer)
Auxiliaries:         1861 (0 integer)

Coin0506I Presolve 16201 (-60) rows, 7171 (-120) columns and 35911 (-180) elements
Clp0006I 0  Obj 0.00047731767 Primal inf 4242.6406 (60) Dual inf 1.3324046e+13 (1800)
Clp0006I 348  Obj 1618.3327 Dual inf 359.605 (1096)
Clp0006I 654  Obj 1310.6436 Dual inf 191174.42 (901)
Clp0006I 960  Obj 1310.6436 Dual inf 89336.28 (895)
Clp0006I 1266  Obj 1251.1641 Dual inf 451757.68 (952)
Clp0006I 1572  Obj 1251.1638 Dual inf 437960.96 (862)
Clp0006I 1878  Obj 1076.511 Dual inf 192152.56 (875)
Clp0006I 2184  Obj 1016.3066 Dual inf 263890.15 (856)
Clp0006I 2490  Obj 1016.306 Dual inf 404094.52 (972)
Clp0006I 2796  Obj 1016.3048 Dual inf 517399.76 (834)
Clp0006I 3102  Obj 883.75388 Dual inf 458252.63 (935)
Clp0006I 3408  Obj 861.30249 Dual inf 737171.65 (912)
Clp0006I 3714  Obj 741.82624 Dual inf 159790.62 (684)
Clp0006I 4020  Obj 741.82474 Dual inf 209242.33 (750)
Clp0006I 4326  Obj 691.09324 Dual inf 307077.91 (669)
Clp0006I 4632  Obj 691.09311 Dual inf 98173.068 (629)
Clp0006I 4938  Obj 593.83871 Dual inf 86538.199 (518)
Clp0006I 5244  Obj 593.83838 Dual inf 38622.485 (481)
Clp0006I 5550  Obj 584.97327 Dual inf 52658.616 (522)
Clp0006I 5856  Obj 584.97288 Dual inf 18498.672 (314)
Clp0006I 6162  Obj 571.86657 Dual inf 946.02855 (69)
Clp0006I 6272  Obj 571.86646
Clp0000I Optimal - objective value 571.86646
Clp0006I 0  Obj 571.87179 Dual inf 5.0532672e-07 (1)
Clp0006I 0  Obj 571.87179 Dual inf 5.0532672e-07 (1)
Clp0006I 1  Obj 571.87179
Clp0000I Optimal - objective value 571.87179
Clp0032I Optimal objective 571.8717851 - 6273 iterations time 1.282, Presolve 0.03
Clp0000I Optimal - objective value 571.87179
Couenne: new cutoff value 5.7187178511e+02 (1210.24 seconds)
NLP Heuristic: NLP0014I             3      FAILED 4903.4798      938 582.64744
no solution.
Clp0000I Optimal - objective value 571.87179
Optimality Based BT: 0 improved bounds
Probing: 16 improved bounds
Cbc0006I The LP relaxation is infeasible or too expensive
Cbc0031I 2 added rows had average density of 2
Cbc0013I At root node, 2 cuts changed objective from 571.87179 to 571.87179 in 2 passes
Cbc0014I Cut generator 0 (Couenne convexifier cuts) - 2 row cuts average 2.0 elements, 2 column cuts (2 active)
Cbc0001I Search completed - best objective 1e+50, took 2 iterations and 0 nodes (602.40 seconds)
Cbc0035I Maximum depth 0, 0 variables fixed on reduced cost

 	"Finished"

Linearization cuts added at root node:      16261
Linearization cuts added in total:          16261  (separation time: 0.029499s)
Total solve time:                         603.694s (603.694s in branch-and-bound)
Lower bound:                              571.872
Upper bound:                              571.872  (gap: 0.00%)
Branch-and-bound nodes:                         0
Stats: /tmp/jl_1uFWBO/model.nl 5430 [var] 1830 [int] 5460 [con] 1861 [aux]  16261 [root]    16261 [tot] 0.029499 [sep]  603.694 [time]  603.704 [bb]         5.718718e+02 [lower]         5.718718e+02 [upper]       0 [nodes]
Performance of                           FBBT:	   0.022376s,        4 runs. fix:          0 shrnk: 1.81923e-12 ubd:          0 2ubd:          0 infeas:          0
Performance of                           OBBT:	    3.76022s,        1 runs. fix:          0 shrnk:          0 ubd:          0 2ubd:          0 infeas:          0
ERROR: LoadError: MathOptInterface.GetAttributeNotAllowed{MathOptInterface.ObjectiveBound}: Getting attribute MathOptInterface.ObjectiveBound() cannot be performed: AmplNLWriter.Optimizer does not support getting the attribute MathOptInterface.ObjectiveBound(). You may want to use a `CachingOptimizer` in `AUTOMATIC` mode or you may need to call `reset_optimizer` before doing this operation if the `CachingOptimizer` is in `MANUAL` mode.
Stacktrace:
  [1] get_fallback(model::AmplNLWriter.Optimizer, attr::MathOptInterface.ObjectiveBound)
    @ MathOptInterface ~/.julia/packages/MathOptInterface/gLl4d/src/attributes.jl:409
  [2] get(::AmplNLWriter.Optimizer, ::MathOptInterface.ObjectiveBound)
    @ MathOptInterface ~/.julia/packages/MathOptInterface/gLl4d/src/attributes.jl:390
  [3] _get_model_attribute(model::MathOptInterface.Utilities.CachingOptimizer{AmplNLWriter.Optimizer, MathOptInterface.Utilities.UniversalFallback{MathOptInterface.Utilities.Model{Float64}}}, attr::MathOptInterface.ObjectiveBound)
    @ MathOptInterface.Utilities ~/.julia/packages/MathOptInterface/gLl4d/src/Utilities/cachingoptimizer.jl:865
  [4] get(model::MathOptInterface.Utilities.CachingOptimizer{AmplNLWriter.Optimizer, MathOptInterface.Utilities.UniversalFallback{MathOptInterface.Utilities.Model{Float64}}}, attr::MathOptInterface.ObjectiveBound)
    @ MathOptInterface.Utilities ~/.julia/packages/MathOptInterface/gLl4d/src/Utilities/cachingoptimizer.jl:900
  [5] get(b::MathOptInterface.Bridges.LazyBridgeOptimizer{MathOptInterface.Utilities.CachingOptimizer{AmplNLWriter.Optimizer, MathOptInterface.Utilities.UniversalFallback{MathOptInterface.Utilities.Model{Float64}}}}, attr::MathOptInterface.ObjectiveBound)
    @ MathOptInterface.Bridges ~/.julia/packages/MathOptInterface/gLl4d/src/Bridges/bridge_optimizer.jl:889
  [6] _get_model_attribute(model::MathOptInterface.Utilities.CachingOptimizer{MathOptInterface.Bridges.LazyBridgeOptimizer{MathOptInterface.Utilities.CachingOptimizer{AmplNLWriter.Optimizer, MathOptInterface.Utilities.UniversalFallback{MathOptInterface.Utilities.Model{Float64}}}}, MathOptInterface.Utilities.UniversalFallback{MathOptInterface.Utilities.Model{Float64}}}, attr::MathOptInterface.ObjectiveBound)
    @ MathOptInterface.Utilities ~/.julia/packages/MathOptInterface/gLl4d/src/Utilities/cachingoptimizer.jl:865
  [7] get(model::MathOptInterface.Utilities.CachingOptimizer{MathOptInterface.Bridges.LazyBridgeOptimizer{MathOptInterface.Utilities.CachingOptimizer{AmplNLWriter.Optimizer, MathOptInterface.Utilities.UniversalFallback{MathOptInterface.Utilities.Model{Float64}}}}, MathOptInterface.Utilities.UniversalFallback{MathOptInterface.Utilities.Model{Float64}}}, attr::MathOptInterface.ObjectiveBound)
    @ MathOptInterface.Utilities ~/.julia/packages/MathOptInterface/gLl4d/src/Utilities/cachingoptimizer.jl:900
  [8] _moi_get_result(model::MathOptInterface.Utilities.CachingOptimizer{MathOptInterface.Bridges.LazyBridgeOptimizer{MathOptInterface.Utilities.CachingOptimizer{AmplNLWriter.Optimizer, MathOptInterface.Utilities.UniversalFallback{MathOptInterface.Utilities.Model{Float64}}}}, MathOptInterface.Utilities.UniversalFallback{MathOptInterface.Utilities.Model{Float64}}}, args::MathOptInterface.ObjectiveBound)
    @ JuMP ~/.julia/packages/JuMP/i68GU/src/optimizer_interface.jl:1053
  [9] get(model::JuMP.Model, attr::MathOptInterface.ObjectiveBound)
    @ JuMP ~/.julia/packages/JuMP/i68GU/src/optimizer_interface.jl:1073
 [10] objective_bound(model::JuMP.Model)
    @ JuMP ~/.julia/packages/JuMP/i68GU/src/objective.jl:78
 [11] nl_uflp_nlass(filename::String, cost::Symbol, solver::AmplNLWriter.Optimizer, solver_params::Vector{Any}; solve::Bool, write_nl::Bool, with_cap_constraint::Bool)
    @ IterativePWLB ~/git/ipwlb/code/sources/IterativePWLB/src/nlsolver.jl:885
 [12] top-level scope
    @ ~/git/ipwlb/code/sources/IterativePWLB/test/couenne/uflp_nlass/script.jl:14
in expression starting at /home/ccontard/git/ipwlb/code/sources/IterativePWLB/test/couenne/uflp_nlass/script.jl:14
Generating Gunluk and Lee data file ../../../../../instances/uflp/gunluk/gunluk-30-60-6.txt
